NAME : portgen-26-55
COMMENT : portgen N=26, seed=55
TYPE : TSP
DIMENSION : 26
EDGE_WEIGHT_TYPE : EUC_2D
NODE_COORD_SECTION
1 176732 793366
2 393308 614971
3 494950 894657
4 740981 613763
5 364900 943825
6 778773 914109
7 774461 733329
8 580205 290382
9 717669 832229
10 102971 256558
11 648125 465300
12 154506 303336
13 949830 904043
14 165908 962693
15 695795 31211
16 908230 674464
17 566701 444980
18 962334 593257
19 433571 921706
20 968903 266356
21 141784 49578
22 400395 353051
23 515694 365291
24 644684 124034
25 824533 220119
26 601046 834387
